units       lj
atom_style  atomic
dimension   3
boundary    p p p

lattice     fcc 0.5
region      box block 0 10 0 10 0 10
create_box  1 box
create_atoms 1 box

pair_style  lj/cut 2.5
pair_coeff  1 1 1.0 1.0 2.5
mass        1 1.0

velocity    all create 1.0 12345

timestep    0.005
thermo      100

dump id all custom 100 temperature.lammpstrj id x y z vx vy vz
fix 1 all nvt temp 0.7 0.7 0.1

run         1000
