units       lj
atom_style  atomic
dimension   3
boundary    p p p

lattice     fcc 0.35
region      box block 0 30 0 30 0 30
create_box  1 box
create_atoms 1 box

pair_style  lj/cut 2.5
pair_coeff  1 1 1.0 1.0 2.5
mass        1 1.0

velocity    all create 1.0 12345

timestep    0.005
thermo      1000

#dump id all atom 1000 condensation.lammpstrj
dump id all custom 500 condensation.lammpstrj id x y z vx vy vz
fix 1 all nvt temp 0.6 0.5 1.0

run         50000
